(set-logic QF_S)
(declare-fun var0 () String)
(declare-fun var1 () Int)
(declare-fun var2 () String)
(declare-fun var3 () String)
(declare-fun var4 () Int)
(declare-fun var5 () String)
(declare-fun var6 () Int)
(declare-fun var7 () Int)
(assert (<= (str.to.int (str.at var0 var1)) (str.indexof var2 var3 var4)))
(assert (<= (str.indexof var5 var5 var6) (str.indexof var0 var3 var7)))
(assert (< (str.len var2) (str.len (str.at var5 var1))))
(assert (str.contains (str.substr var3 var1 var7) (str.replace var2 var2 var3)))
(check-sat)